
Gurobi 9.0.1 (linux64) logging started Thu Apr 30 18:39:52 2020

Gurobi Optimizer version 9.0.1 build v9.0.1rc0 (linux64)
Optimize a model with 11327 rows, 12060 columns and 198990 nonzeros
Model fingerprint: 0x05bd58d5
Variable types: 0 continuous, 12060 integer (12032 binary)
Coefficient statistics:
  Matrix range     [1e+00, 1e+01]
  Objective range  [1e+00, 1e+02]
  Bounds range     [1e+00, 1e+00]
  RHS range        [1e+00, 1e+00]

User MIP start produced solution with objective 909 (0.29s)
Loaded user MIP start with objective 909

Presolve removed 928 rows and 1887 columns
Presolve time: 2.83s
Presolved: 10399 rows, 10173 columns, 162246 nonzeros
Variable types: 0 continuous, 10173 integer (10147 binary)

Root simplex log...

Iteration    Objective       Primal Inf.    Dual Inf.      Time
    3365    5.3900016e+02   1.665709e+03   0.000000e+00      5s
    6160    5.4812271e+02   1.155517e+03   0.000000e+00     10s
    8240    5.4999356e+02   5.840920e+02   0.000000e+00     15s
   10084    5.5017836e+02   4.220378e+02   0.000000e+00     20s
   11617    5.5026523e+02   1.519021e+03   0.000000e+00     25s
   13064    5.5062870e+02   3.821959e+02   0.000000e+00     30s
   14492    5.5066940e+02   9.166657e+01   0.000000e+00     35s
   15382    5.5067586e+02   0.000000e+00   0.000000e+00     38s

Root relaxation: objective 5.506759e+02, 15382 iterations, 34.85 seconds
Total elapsed time = 40.06s

    Nodes    |    Current Node    |     Objective Bounds      |     Work
 Expl Unexpl |  Obj  Depth IntInf | Incumbent    BestBd   Gap | It/Node Time

     0     0  550.67586    0 3358  909.00000  550.67586  39.4%     -   41s
     0     0  574.38095    0 3418  909.00000  574.38095  36.8%     -  127s
     0     0  574.39797    0 3394  909.00000  574.39797  36.8%     -  133s
     0     0  574.40355    0 3357  909.00000  574.40355  36.8%     -  136s
     0     0  574.40355    0 3359  909.00000  574.40355  36.8%     -  136s
     0     0  580.58116    0 3512  909.00000  580.58116  36.1%     -  251s
     0     0  580.65781    0 3477  909.00000  580.65781  36.1%     -  282s
     0     0  580.65970    0 3471  909.00000  580.65970  36.1%     -  289s
     0     0  587.71170    0 3322  909.00000  587.71170  35.3%     -  532s
     0     0  588.43014    0 3343  909.00000  588.43014  35.3%     -  616s
     0     0  588.44670    0 3315  909.00000  588.44670  35.3%     -  644s
     0     0  588.44883    0 3325  909.00000  588.44883  35.3%     -  656s
     0     0  593.42631    0 3408  909.00000  593.42631  34.7%     -  962s
     0     0  593.99056    0 3470  909.00000  593.99056  34.7%     - 1026s
     0     0  594.06948    0 3460  909.00000  594.06948  34.6%     - 1047s
     0     0  594.07582    0 3428  909.00000  594.07582  34.6%     - 1063s
     0     0  596.46478    0 3418  909.00000  596.46478  34.4%     - 1290s
     0     0  596.92885    0 3462  909.00000  596.92885  34.3%     - 1387s
     0     0  597.05142    0 3393  909.00000  597.05142  34.3%     - 1433s
     0     0  597.06984    0 3415  909.00000  597.06984  34.3%     - 1471s
     0     0  597.90542    0 3495  909.00000  597.90542  34.2%     - 1773s
     0     0  597.95636    0 3477  909.00000  597.95636  34.2%     - 1853s
     0     0  598.09783    0 3472  909.00000  598.09783  34.2%     - 1964s
     0     0  598.10570    0 3489  909.00000  598.10570  34.2%     - 2001s
     0     0  599.12099    0 3512  909.00000  599.12099  34.1%     - 2317s
     0     0  599.16522    0 3534  909.00000  599.16522  34.1%     - 2383s
     0     0  599.18177    0 3555  909.00000  599.18177  34.1%     - 2429s
     0     0  600.22349    0 3484  909.00000  600.22349  34.0%     - 2670s
     0     0  600.27264    0 3511  909.00000  600.27264  34.0%     - 2748s
     0     0  600.28126    0 3513  909.00000  600.28126  34.0%     - 2785s
     0     0  601.23826    0 3516  909.00000  601.23826  33.9%     - 2975s
     0     0  601.27567    0 3578  909.00000  601.27567  33.9%     - 3043s
     0     0  601.28215    0 3562  909.00000  601.28215  33.9%     - 3076s
     0     0  602.02154    0 3476  909.00000  602.02154  33.8%     - 3306s
     0     0  602.10366    0 3487  909.00000  602.10366  33.8%     - 3391s
     0     0  602.11030    0 3503  909.00000  602.11030  33.8%     - 3445s
     0     0          -    0       909.00000  602.11030  33.8%     - 3600s

Cutting planes:
  Gomory: 3
  MIR: 99
  StrongCG: 3
  GUB cover: 2
  Zero half: 75
  RLT: 2670

Explored 1 nodes (569819 simplex iterations) in 3600.01 seconds
Thread count was 1 (of 40 available processors)

Solution count 1: 909 

Time limit reached
Best objective 9.090000000000e+02, best bound 6.030000000000e+02, gap 33.6634%

User-callback calls 5034, time in user-callback 0.01 sec
